\ENCODING=ISO-8859-1
\Problem name: Graph_coloring

Minimize
 obj: x37 + x38 + x39 + x40 + x41 + x42
Subject To
 c1:   x1 + x2 + x3 + x4 + x5 + x6  = 1
 c2:   x7 + x8 + x9 + x10 + x11 + x12  = 1
 c3:   x13 + x14 + x15 + x16 + x17 + x18  = 1
 c4:   x19 + x20 + x21 + x22 + x23 + x24  = 1
 c5:   x25 + x26 + x27 + x28 + x29 + x30  = 1
 c6:   x31 + x32 + x33 + x34 + x35 + x36  = 1
 c7:   x1 - x37 <= 0
 c8:   x7 - x37 <= 0
 c9:   x13 - x37 <= 0
 c10:  x19 - x37 <= 0
 c11:  x25 - x37 <= 0
 c12:  x31 - x37 <= 0
 c13:  x2 - x38 <= 0
 c14:  x8 - x38 <= 0
 c15:  x14 - x38 <= 0
 c16:  x20 - x38 <= 0
 c17:  x26 - x38 <= 0
 c18:  x32 - x38 <= 0
 c19:  x3 - x39 <= 0
 c20:  x9 - x39 <= 0
 c21:  x15 - x39 <= 0
 c22:  x21 - x39 <= 0
 c23:  x27 - x39 <= 0
 c24:  x33 - x39 <= 0
 c25:  x4 - x40 <= 0
 c26:  x10 - x40 <= 0
 c27:  x16 - x40 <= 0
 c28:  x22 - x40 <= 0
 c29:  x28 - x40 <= 0
 c30:  x34 - x40 <= 0
 c31:  x5 - x41 <= 0
 c32:  x11 - x41 <= 0
 c33:  x17 - x41 <= 0
 c34:  x23 - x41 <= 0
 c35:  x29 - x41 <= 0
 c36:  x35 - x41 <= 0
 c37:  x6 - x42 <= 0
 c38:  x12 - x42 <= 0
 c39:  x18 - x42 <= 0
 c40:  x24 - x42 <= 0
 c41:  x30 - x42 <= 0
 c42:  x36 - x42 <= 0
 c43:  x1 + x7 <= 1
 c44:  x2 + x8 <= 1
 c45:  x3 + x9 <= 1
 c46:  x4 + x10 <= 1
 c47:  x5 + x11 <= 1
 c48:  x6 + x12 <= 1
 c49:  x1 + x13 <= 1
 c50:  x2 + x14 <= 1
 c51:  x3 + x15 <= 1
 c52:  x4 + x16 <= 1
 c53:  x5 + x17 <= 1
 c54:  x6 + x18 <= 1
 c55:  x7 + x13 <= 1
 c56:  x8 + x14 <= 1
 c57:  x9 + x15 <= 1
 c58:  x10 + x16 <= 1
 c59:  x11 + x17 <= 1
 c60:  x12 + x18 <= 1
 c61:  x19 + x25 <= 1
 c62:  x20 + x26 <= 1
 c63:  x21 + x27 <= 1
 c64:  x22 + x28 <= 1
 c65:  x23 + x29 <= 1
 c66:  x24 + x30 <= 1
 c67:  x7 + x31 <= 1
 c68:  x8 + x32 <= 1
 c69:  x9 + x33 <= 1
 c70:  x10 + x34 <= 1
 c71:  x11 + x35 <= 1
 c72:  x12 + x36 <= 1
 c73:  x19 + x31 <= 1
 c74:  x20 + x32 <= 1
 c75:  x21 + x33 <= 1
 c76:  x22 + x34 <= 1
 c77:  x23 + x35 <= 1
 c78:  x24 + x36 <= 1
 c79:  x25 + x31 <= 1
 c80:  x26 + x32 <= 1
 c81:  x27 + x33 <= 1
 c82:  x28 + x34 <= 1
 c83:  x29 + x35 <= 1
 c84:  x30 + x36 <= 1
 c85:  x1 + x19 <= 1
 c86:  x2 + x20 <= 1
 c87:  x3 + x21 <= 1
 c88:  x4 + x22 <= 1
 c89:  x5 + x23 <= 1
 c90:  x6 + x24 <= 1
 c91:  x13 + x25 <= 1
 c92:  x14 + x26 <= 1
 c93:  x15 + x27 <= 1
 c94:  x16 + x28 <= 1
 c95:  x17 + x29 <= 1
 c96:  x18 + x30 <= 1
 c97:  x7 + x19 <= 1
 c98:  x8 + x20 <= 1
 c99:  x9 + x21 <= 1
 c100: x10 + x22 <= 1
 c101: x11 + x23 <= 1
 c102: x12 + x24 <= 1
Bounds
 0 <= x1 <= 1
 0 <= x2 <= 1
 0 <= x3 <= 1
 0 <= x4 <= 1
 0 <= x5 <= 1
 0 <= x6 <= 1
 0 <= x7 <= 1
 0 <= x8 <= 1
 0 <= x9 <= 1
 0 <= x10 <= 1
 0 <= x11 <= 1
 0 <= x12 <= 1
 0 <= x13 <= 1
 0 <= x14 <= 1
 0 <= x15 <= 1
 0 <= x16 <= 1
 0 <= x17 <= 1
 0 <= x18 <= 1
 0 <= x19 <= 1
 0 <= x20 <= 1
 0 <= x21 <= 1
 0 <= x22 <= 1
 0 <= x23 <= 1
 0 <= x24 <= 1
 0 <= x25 <= 1
 0 <= x26 <= 1
 0 <= x27 <= 1
 0 <= x28 <= 1
 0 <= x29 <= 1
 0 <= x30 <= 1
 0 <= x31 <= 1
 0 <= x32 <= 1
 0 <= x33 <= 1
 0 <= x34 <= 1
 0 <= x35 <= 1
 0 <= x36 <= 1
 0 <= x37 <= 1
 0 <= x38 <= 1
 0 <= x39 <= 1
 0 <= x40 <= 1
 0 <= x41 <= 1
 0 <= x42 <= 1
Binaries
 x1  x2  x3  x4  x5  x6  x7  x8  x9  x10  x11  x12  x13  x14  x15  x16  x17 
 x18  x19  x20  x21  x22  x23  x24  x25  x26  x27  x28  x29  x30  x31  x32 
 x33  x34  x35  x36  x37  x38  x39  x40  x41  x42 
End
